(set-logic UF)
(declare-sort Loc 0)
(declare-sort SetLoc 0)
(declare-sort FldBool 0)
(declare-sort FldLoc 0)
(declare-fun null$0 () Loc)
(declare-fun read$0 (FldLoc Loc) Loc)
(declare-fun ep$0 (FldLoc SetLoc Loc) Loc)
(declare-fun emptyset$0 () SetLoc)
(declare-fun setenum$0 (Loc) SetLoc)
(declare-fun union$0 (SetLoc SetLoc) SetLoc)
(declare-fun intersection$0 (SetLoc SetLoc) SetLoc)
(declare-fun setminus$0 (SetLoc SetLoc) SetLoc)
(declare-fun Btwn$0 (FldLoc Loc Loc Loc) Bool)
(declare-fun Frame$0 (SetLoc SetLoc FldLoc FldLoc) Bool)
(declare-fun in$0 (Loc SetLoc) Bool)
(declare-fun Alloc$0 () SetLoc)
(declare-fun Axiom$0 () Bool)
(declare-fun Axiom_1$0 () Bool)
(declare-fun Axiom_2$0 () Bool)
(declare-fun FP$0 () SetLoc)
(declare-fun FP_2$0 () SetLoc)
(declare-fun FP_3$0 () SetLoc)
(declare-fun FP_Caller$0 () SetLoc)
(declare-fun FP_Caller_2$0 () SetLoc)
(declare-fun X$0 () SetLoc)
(declare-fun X_27$0 () SetLoc)
(declare-fun lseg_set_X$0 (FldLoc Loc Loc) SetLoc)
(declare-fun lseg_set_domain$0 (FldLoc Loc Loc) SetLoc)
(declare-fun lseg_set_struct$0 (SetLoc FldLoc Loc Loc SetLoc) Bool)
(declare-fun n_5$0 () Loc)
(declare-fun next$0 () FldLoc)
(declare-fun next_2$0 () FldLoc)
(declare-fun res_4$0 () Loc)
(declare-fun root_x$0 () Loc)
(declare-fun sk_?X_14$0 () SetLoc)
(declare-fun sk_?X_15$0 () SetLoc)
(declare-fun sk_?X_16$0 () SetLoc)
(declare-fun sk_?X_17$0 () SetLoc)
(declare-fun sk_?X_18$0 () SetLoc)
(declare-fun sk_?X_19$0 () SetLoc)
(declare-fun sk_?X_20$0 () SetLoc)
(declare-fun sk_?X_21$0 () SetLoc)
(declare-fun sk_?X_22$0 () SetLoc)
(declare-fun sk_?X_23$0 () SetLoc)
(declare-fun sk_?X_24$0 () SetLoc)
(declare-fun sk_?X_25$0 () SetLoc)
(declare-fun sk_?X_26$0 () SetLoc)
(declare-fun sk_?X_27$0 () SetLoc)
(declare-fun t_5$0 () Loc)
(declare-fun t_6$0 () Loc)
(declare-fun t_7$0 () Loc)
(declare-fun t_8$0 () Loc)
(declare-fun x$0 () Loc)
(assert (not (and (forall ((BOUND_VARIABLE_949 Loc)) (or (Btwn$0 next$0 x$0 BOUND_VARIABLE_949 root_x$0) (and (or (= root_x$0 BOUND_VARIABLE_949) (not (Btwn$0 next$0 x$0 BOUND_VARIABLE_949 root_x$0))) (not (in$0 BOUND_VARIABLE_949 (lseg_set_domain$0 next$0 x$0 root_x$0)))))) (forall ((BOUND_VARIABLE_961 Loc)) (or (in$0 BOUND_VARIABLE_961 (lseg_set_domain$0 next$0 x$0 root_x$0)) (and (or (= root_x$0 BOUND_VARIABLE_961) (not (Btwn$0 next$0 x$0 BOUND_VARIABLE_961 root_x$0))) (not (in$0 BOUND_VARIABLE_961 (lseg_set_domain$0 next$0 x$0 root_x$0)))))) (not (in$0 root_x$0 (lseg_set_domain$0 next$0 x$0 root_x$0))))))
(assert (forall ((l1 Loc)) (or (and (Btwn$0 next$0 x$0 l1 root_x$0) (in$0 l1 (lseg_set_domain$0 next$0 x$0 root_x$0)) (not (= l1 root_x$0))) (and (or (= l1 root_x$0) (not (Btwn$0 next$0 x$0 l1 root_x$0))) (not (in$0 l1 (lseg_set_domain$0 next$0 x$0 root_x$0)))))))
(assert (or (not (= (forall ((l1 Loc)) (or (and (Btwn$0 next$0 x$0 l1 root_x$0) (in$0 l1 (lseg_set_domain$0 next$0 x$0 root_x$0)) (not (= l1 root_x$0))) (and (or (= l1 root_x$0) (not (Btwn$0 next$0 x$0 l1 root_x$0))) (not (in$0 l1 (lseg_set_domain$0 next$0 x$0 root_x$0)))))) (and (forall ((BOUND_VARIABLE_949 Loc)) (or (Btwn$0 next$0 x$0 BOUND_VARIABLE_949 root_x$0) (and (or (= root_x$0 BOUND_VARIABLE_949) (not (Btwn$0 next$0 x$0 BOUND_VARIABLE_949 root_x$0))) (not (in$0 BOUND_VARIABLE_949 (lseg_set_domain$0 next$0 x$0 root_x$0)))))) (forall ((BOUND_VARIABLE_961 Loc)) (or (in$0 BOUND_VARIABLE_961 (lseg_set_domain$0 next$0 x$0 root_x$0)) (and (or (= root_x$0 BOUND_VARIABLE_961) (not (Btwn$0 next$0 x$0 BOUND_VARIABLE_961 root_x$0))) (not (in$0 BOUND_VARIABLE_961 (lseg_set_domain$0 next$0 x$0 root_x$0)))))) (not (in$0 root_x$0 (lseg_set_domain$0 next$0 x$0 root_x$0)))))) (not (forall ((l1 Loc)) (or (and (Btwn$0 next$0 x$0 l1 root_x$0) (in$0 l1 (lseg_set_domain$0 next$0 x$0 root_x$0)) (not (= l1 root_x$0))) (and (or (= l1 root_x$0) (not (Btwn$0 next$0 x$0 l1 root_x$0))) (not (in$0 l1 (lseg_set_domain$0 next$0 x$0 root_x$0))))))) (and (forall ((BOUND_VARIABLE_949 Loc)) (or (Btwn$0 next$0 x$0 BOUND_VARIABLE_949 root_x$0) (and (or (= root_x$0 BOUND_VARIABLE_949) (not (Btwn$0 next$0 x$0 BOUND_VARIABLE_949 root_x$0))) (not (in$0 BOUND_VARIABLE_949 (lseg_set_domain$0 next$0 x$0 root_x$0)))))) (forall ((BOUND_VARIABLE_961 Loc)) (or (in$0 BOUND_VARIABLE_961 (lseg_set_domain$0 next$0 x$0 root_x$0)) (and (or (= root_x$0 BOUND_VARIABLE_961) (not (Btwn$0 next$0 x$0 BOUND_VARIABLE_961 root_x$0))) (not (in$0 BOUND_VARIABLE_961 (lseg_set_domain$0 next$0 x$0 root_x$0)))))) (not (in$0 root_x$0 (lseg_set_domain$0 next$0 x$0 root_x$0))))))
(assert (= (forall ((l1 Loc)) (or (and (Btwn$0 next$0 x$0 l1 root_x$0) (in$0 l1 (lseg_set_domain$0 next$0 x$0 root_x$0)) (not (= l1 root_x$0))) (and (or (= l1 root_x$0) (not (Btwn$0 next$0 x$0 l1 root_x$0))) (not (in$0 l1 (lseg_set_domain$0 next$0 x$0 root_x$0)))))) (and (forall ((BOUND_VARIABLE_949 Loc)) (or (Btwn$0 next$0 x$0 BOUND_VARIABLE_949 root_x$0) (and (or (= root_x$0 BOUND_VARIABLE_949) (not (Btwn$0 next$0 x$0 BOUND_VARIABLE_949 root_x$0))) (not (in$0 BOUND_VARIABLE_949 (lseg_set_domain$0 next$0 x$0 root_x$0)))))) (forall ((BOUND_VARIABLE_961 Loc)) (or (in$0 BOUND_VARIABLE_961 (lseg_set_domain$0 next$0 x$0 root_x$0)) (and (or (= root_x$0 BOUND_VARIABLE_961) (not (Btwn$0 next$0 x$0 BOUND_VARIABLE_961 root_x$0))) (not (in$0 BOUND_VARIABLE_961 (lseg_set_domain$0 next$0 x$0 root_x$0)))))) (not (in$0 root_x$0 (lseg_set_domain$0 next$0 x$0 root_x$0))))))
(check-sat)
(exit)
